c clasp version 2.1.4
c Reading from ...arks/21_Nodes/PBencd_EuclideanCost.opb
c Solving...
o 729
o 727
o 694
o 692
o 679
o 622
o 620
o 616
o 613
o 599
o 574
o 558
o 548
o 537
o 525
o 520
o 518
o 515
o 513
o 512
o 507
o 506
o 500
o 492
o 490
o 483
o 475
o 473
o 472
o 471
o 467
o 456
o 454
o 452
o 451
o 443
o 441
o 439
o 437
o 433
o 431
o 429
o 427
o 418
o 412
o 408
o 402
o 399
o 398
o 397
o 394
o 387
o 385
o 379
o 378
o 377
o 376
o 375
o 368
o 360
o 358
o 355
o 354
o 348
o 338
o 336
o 335
o 330
o 323
o 318
o 310
o 308
o 303
o 300
o 295
o 293
